proyfinal/src/viki/013/andrea/andrea-localstore/experimentInOfficeAgust.take6/worker_4/f489aa49-d41d-4e01-9891-e70a85f4ee58.als.cnf.out
Reading from standard input... Use '--help' for help.
============================[ Problem Statistics ]=============================
|                                                                             |
|  Number of variables:         87638                                         |
|  Number of clauses:          161767                                         |
|  Parse time:                   0.03 s                                       |
|                                                                             |
============================[ Search Statistics ]==============================
| Conflicts |          ORIGINAL         |          LEARNT          | Progress |
|           |    Vars  Clauses Literals |    Limit  Clauses Lit/Cl |          |
===============================================================================
|       100 |   62355   105046   262533 |    38516      100      9 | 28.849 % |
|       250 |   62335   104967   262351 |    42368      228     18 | 28.872 % |
|       475 |   62317   104901   262175 |    46605      435     88 | 28.893 % |
|       812 |   62290   104802   261911 |    51265      750     77 | 28.924 % |
|      1318 |   62290   104802   261911 |    56392     1256     68 | 28.924 % |
|      2077 |   62243   104625   261460 |    62031     1997     80 | 28.977 % |
|      3216 |   62217   104482   261148 |    68234     2582     79 | 29.007 % |
|      4924 |   62191   104339   260836 |    75058     4073     77 | 29.036 % |
|      7486 |   62101   103865   259784 |    82564     5804     77 | 29.139 % |
===============================================================================
restarts              : 35
conflicts             : 8444           (6823 /sec)
decisions             : 30755          (0.00 % random) (24850 /sec)
propagations          : 11997473       (9694082 /sec)
conflict literals     : 650479         (54.66 % deleted)
Memory used           : 25.20 MB
CPU time              : 1.23761 s

UNSATISFIABLE
